

******************************************************************************
This program contains Ipopt, a library for large-scale nonlinear optimization.
 Ipopt is released as open source code under the Eclipse Public License (EPL).
         For more information visit https://github.com/coin-or/Ipopt
******************************************************************************

This is Ipopt version 3.14.11, running with linear solver MUMPS 5.5.1.

Number of nonzeros in equality constraint Jacobian...:        0
Number of nonzeros in inequality constraint Jacobian.:     2550
Number of nonzeros in Lagrangian Hessian.............:        0

Total number of variables............................:       51
                     variables with only lower bounds:        0
                variables with lower and upper bounds:        0
                     variables with only upper bounds:        0
Total number of equality constraints.................:        0
Total number of inequality constraints...............:       50
        inequality constraints with only lower bounds:       50
   inequality constraints with lower and upper bounds:        0
        inequality constraints with only upper bounds:        0

iter    objective    inf_pr   inf_du lg(mu)  ||d||  lg(rg) alpha_du alpha_pr  ls
   0  0.0000000e+00 1.22e+03 9.61e-01  -1.0 0.00e+00    -  0.00e+00 0.00e+00   0
   1  3.0665464e+02 0.00e+00 3.07e-02  -1.0 3.07e+02  -4.0 1.00e+00 1.00e+00h  1
   2  1.7013384e+01 0.00e+00 2.68e-03  -1.0 1.30e+03    -  1.00e+00 9.13e-01f  1
   3  1.0006305e+00 0.00e+00 2.00e-07  -1.7 3.99e+01    -  1.00e+00 1.00e+00f  1
   4  9.2175004e-03 0.00e+00 3.31e-05  -3.8 9.92e-01  -4.5 1.00e+00 1.00e+00f  1
   5  7.6878521e-05 0.00e+00 1.02e-07  -5.7 9.14e-03  -5.0 1.00e+00 1.00e+00f  1
   6  1.1489777e-07 0.00e+00 2.51e-14  -8.6 7.68e-05    -  1.00e+00 1.00e+00f  1

Number of Iterations....: 6

                                   (scaled)                 (unscaled)
Objective...............:   1.1489777056770489e-07    1.1489777056770489e-07
Dual infeasibility......:   2.5077162568720723e-14    2.5077162568720723e-14
Constraint violation....:   0.0000000000000000e+00    0.0000000000000000e+00
Variable bound violation:   0.0000000000000000e+00    0.0000000000000000e+00
Complementarity.........:   2.4979531096157990e-09    2.4979531096157990e-09
Overall NLP error.......:   2.4979531096157990e-09    2.4979531096157990e-09


Number of objective function evaluations             = 7
Number of objective gradient evaluations             = 7
Number of equality constraint evaluations            = 0
Number of inequality constraint evaluations          = 7
Number of equality constraint Jacobian evaluations   = 0
Number of inequality constraint Jacobian evaluations = 7
Number of Lagrangian Hessian evaluations             = 6
Total seconds in IPOPT                               = 0.021

EXIT: Optimal Solution Found.
 
Ipopt 3.14.11: Optimal Solution Found
